p edge 99 2007
e 1 7
e 1 8
e 1 11
e 1 12
e 1 20
e 1 21
e 1 23
e 1 26
e 1 29
e 1 30
e 1 31
e 1 33
e 1 34
e 1 36
e 1 39
e 1 43
e 1 45
e 1 49
e 1 54
e 1 55
e 1 56
e 1 58
e 1 59
e 1 66
e 1 70
e 1 71
e 1 72
e 1 73
e 1 75
e 1 81
e 1 83
e 1 85
e 1 86
e 1 87
e 1 92
e 1 97
e 1 99
e 2 4
e 2 7
e 2 9
e 2 11
e 2 13
e 2 16
e 2 18
e 2 20
e 2 23
e 2 24
e 2 27
e 2 29
e 2 30
e 2 31
e 2 43
e 2 44
e 2 46
e 2 47
e 2 48
e 2 51
e 2 52
e 2 54
e 2 58
e 2 59
e 2 61
e 2 64
e 2 70
e 2 71
e 2 74
e 2 76
e 2 78
e 2 83
e 2 84
e 2 87
e 2 89
e 2 92
e 2 93
e 2 94
e 2 95
e 2 97
e 3 8
e 3 9
e 3 10
e 3 15
e 3 16
e 3 21
e 3 26
e 3 27
e 3 28
e 3 29
e 3 32
e 3 35
e 3 36
e 3 37
e 3 38
e 3 39
e 3 42
e 3 44
e 3 45
e 3 52
e 3 57
e 3 58
e 3 60
e 3 66
e 3 68
e 3 69
e 3 72
e 3 73
e 3 77
e 3 82
e 3 83
e 3 84
e 3 85
e 3 89
e 3 92
e 4 6
e 4 8
e 4 12
e 4 14
e 4 15
e 4 16
e 4 17
e 4 19
e 4 24
e 4 28
e 4 29
e 4 31
e 4 35
e 4 36
e 4 44
e 4 50
e 4 51
e 4 52
e 4 57
e 4 60
e 4 61
e 4 69
e 4 71
e 4 72
e 4 75
e 4 81
e 4 82
e 4 83
e 4 85
e 4 92
e 4 95
e 4 99
e 5 7
e 5 10
e 5 12
e 5 15
e 5 19
e 5 20
e 5 22
e 5 23
e 5 24
e 5 25
e 5 29
e 5 32
e 5 35
e 5 39
e 5 41
e 5 45
e 5 51
e 5 55
e 5 56
e 5 57
e 5 61
e 5 62
e 5 63
e 5 64
e 5 66
e 5 67
e 5 68
e 5 69
e 5 72
e 5 77
e 5 79
e 5 80
e 5 85
e 5 87
e 5 89
e 5 90
e 5 91
e 5 93
e 5 94
e 5 96
e 5 98
e 6 8
e 6 12
e 6 13
e 6 14
e 6 18
e 6 19
e 6 20
e 6 21
e 6 26
e 6 27
e 6 29
e 6 30
e 6 32
e 6 33
e 6 34
e 6 38
e 6 40
e 6 43
e 6 45
e 6 47
e 6 48
e 6 51
e 6 52
e 6 59
e 6 61
e 6 62
e 6 63
e 6 65
e 6 66
e 6 67
e 6 69
e 6 70
e 6 72
e 6 74
e 6 77
e 6 78
e 6 81
e 6 82
e 6 84
e 6 85
e 6 87
e 6 88
e 6 90
e 6 91
e 6 95
e 6 97
e 7 9
e 7 13
e 7 16
e 7 17
e 7 18
e 7 20
e 7 25
e 7 26
e 7 29
e 7 31
e 7 33
e 7 34
e 7 36
e 7 37
e 7 38
e 7 41
e 7 42
e 7 43
e 7 44
e 7 49
e 7 50
e 7 52
e 7 53
e 7 55
e 7 56
e 7 60
e 7 61
e 7 63
e 7 66
e 7 67
e 7 76
e 7 78
e 7 83
e 7 84
e 7 85
e 7 87
e 7 89
e 7 91
e 7 92
e 7 93
e 7 94
e 7 95
e 7 98
e 7 99
e 8 9
e 8 13
e 8 15
e 8 16
e 8 18
e 8 20
e 8 22
e 8 24
e 8 25
e 8 30
e 8 33
e 8 34
e 8 35
e 8 37
e 8 38
e 8 40
e 8 43
e 8 48
e 8 49
e 8 52
e 8 55
e 8 56
e 8 57
e 8 58
e 8 59
e 8 65
e 8 66
e 8 67
e 8 70
e 8 73
e 8 74
e 8 76
e 8 77
e 8 82
e 8 83
e 8 85
e 8 91
e 8 92
e 8 97
e 9 10
e 9 17
e 9 18
e 9 20
e 9 21
e 9 22
e 9 23
e 9 31
e 9 33
e 9 35
e 9 37
e 9 38
e 9 39
e 9 41
e 9 43
e 9 46
e 9 48
e 9 50
e 9 54
e 9 56
e 9 59
e 9 61
e 9 63
e 9 64
e 9 69
e 9 71
e 9 74
e 9 75
e 9 77
e 9 78
e 9 83
e 9 84
e 9 98
e 10 17
e 10 21
e 10 22
e 10 23
e 10 24
e 10 25
e 10 29
e 10 30
e 10 32
e 10 34
e 10 36
e 10 37
e 10 38
e 10 41
e 10 44
e 10 45
e 10 46
e 10 50
e 10 55
e 10 56
e 10 61
e 10 63
e 10 64
e 10 66
e 10 76
e 10 78
e 10 82
e 10 86
e 10 91
e 10 93
e 10 94
e 10 96
e 10 97
e 10 99
e 11 12
e 11 18
e 11 21
e 11 22
e 11 24
e 11 26
e 11 28
e 11 29
e 11 32
e 11 33
e 11 34
e 11 35
e 11 39
e 11 42
e 11 47
e 11 48
e 11 52
e 11 53
e 11 54
e 11 58
e 11 60
e 11 62
e 11 63
e 11 71
e 11 73
e 11 74
e 11 78
e 11 83
e 11 85
e 11 91
e 11 93
e 11 94
e 12 15
e 12 18
e 12 21
e 12 22
e 12 27
e 12 32
e 12 35
e 12 39
e 12 40
e 12 41
e 12 42
e 12 46
e 12 47
e 12 49
e 12 52
e 12 55
e 12 57
e 12 58
e 12 60
e 12 64
e 12 67
e 12 69
e 12 70
e 12 73
e 12 75
e 12 76
e 12 77
e 12 79
e 12 82
e 12 83
e 12 85
e 12 89
e 12 93
e 12 98
e 12 99
e 13 14
e 13 18
e 13 20
e 13 21
e 13 23
e 13 25
e 13 27
e 13 30
e 13 32
e 13 35
e 13 41
e 13 42
e 13 43
e 13 46
e 13 47
e 13 48
e 13 49
e 13 50
e 13 52
e 13 55
e 13 58
e 13 60
e 13 61
e 13 65
e 13 72
e 13 75
e 13 76
e 13 80
e 13 81
e 13 83
e 13 86
e 13 88
e 13 90
e 13 92
e 13 94
e 13 96
e 13 97
e 13 98
e 13 99
e 14 17
e 14 18
e 14 19
e 14 20
e 14 22
e 14 23
e 14 24
e 14 25
e 14 28
e 14 29
e 14 35
e 14 36
e 14 37
e 14 41
e 14 44
e 14 46
e 14 50
e 14 51
e 14 53
e 14 56
e 14 57
e 14 58
e 14 59
e 14 62
e 14 68
e 14 75
e 14 78
e 14 87
e 14 88
e 14 89
e 14 91
e 14 97
e 14 98
e 15 18
e 15 19
e 15 22
e 15 28
e 15 34
e 15 35
e 15 37
e 15 40
e 15 41
e 15 42
e 15 43
e 15 49
e 15 50
e 15 51
e 15 53
e 15 56
e 15 57
e 15 59
e 15 61
e 15 70
e 15 72
e 15 74
e 15 77
e 15 80
e 15 81
e 15 83
e 15 85
e 15 86
e 15 87
e 15 88
e 15 89
e 15 91
e 15 95
e 15 98
e 15 99
e 16 20
e 16 21
e 16 23
e 16 26
e 16 27
e 16 29
e 16 30
e 16 36
e 16 38
e 16 39
e 16 47
e 16 50
e 16 51
e 16 54
e 16 55
e 16 58
e 16 62
e 16 68
e 16 69
e 16 73
e 16 74
e 16 77
e 16 78
e 16 79
e 16 80
e 16 81
e 16 82
e 16 84
e 16 85
e 16 86
e 16 88
e 16 93
e 16 97
e 16 98
e 17 19
e 17 24
e 17 36
e 17 41
e 17 47
e 17 49
e 17 50
e 17 55
e 17 58
e 17 59
e 17 61
e 17 62
e 17 63
e 17 65
e 17 66
e 17 69
e 17 71
e 17 75
e 17 77
e 17 80
e 17 81
e 17 82
e 17 83
e 17 84
e 17 85
e 17 87
e 17 88
e 17 90
e 17 92
e 17 93
e 17 94
e 17 95
e 17 96
e 17 97
e 17 98
e 18 20
e 18 21
e 18 22
e 18 24
e 18 26
e 18 30
e 18 31
e 18 36
e 18 37
e 18 42
e 18 47
e 18 50
e 18 51
e 18 53
e 18 54
e 18 55
e 18 60
e 18 61
e 18 62
e 18 64
e 18 65
e 18 71
e 18 72
e 18 78
e 18 79
e 18 83
e 18 84
e 18 85
e 18 86
e 18 95
e 19 21
e 19 22
e 19 23
e 19 30
e 19 31
e 19 34
e 19 35
e 19 36
e 19 40
e 19 42
e 19 46
e 19 52
e 19 57
e 19 58
e 19 61
e 19 64
e 19 65
e 19 66
e 19 68
e 19 69
e 19 71
e 19 73
e 19 74
e 19 77
e 19 78
e 19 79
e 19 81
e 19 82
e 19 84
e 19 85
e 19 87
e 19 88
e 19 89
e 19 90
e 19 91
e 19 92
e 19 94
e 19 95
e 19 96
e 19 98
e 20 24
e 20 27
e 20 31
e 20 32
e 20 33
e 20 35
e 20 37
e 20 42
e 20 43
e 20 45
e 20 46
e 20 47
e 20 49
e 20 50
e 20 53
e 20 55
e 20 56
e 20 59
e 20 60
e 20 61
e 20 66
e 20 69
e 20 74
e 20 77
e 20 78
e 20 80
e 20 81
e 20 82
e 20 83
e 20 85
e 20 87
e 20 90
e 20 91
e 20 99
e 21 22
e 21 23
e 21 24
e 21 30
e 21 32
e 21 35
e 21 39
e 21 40
e 21 46
e 21 47
e 21 49
e 21 53
e 21 54
e 21 56
e 21 57
e 21 58
e 21 60
e 21 61
e 21 62
e 21 64
e 21 70
e 21 71
e 21 75
e 21 79
e 21 80
e 21 85
e 21 86
e 21 87
e 21 93
e 21 94
e 21 96
e 21 98
e 21 99
e 22 24
e 22 26
e 22 28
e 22 30
e 22 34
e 22 35
e 22 39
e 22 40
e 22 41
e 22 43
e 22 51
e 22 54
e 22 58
e 22 59
e 22 60
e 22 61
e 22 63
e 22 64
e 22 67
e 22 68
e 22 72
e 22 73
e 22 78
e 22 89
e 22 90
e 22 92
e 22 93
e 22 97
e 22 98
e 23 25
e 23 26
e 23 31
e 23 33
e 23 36
e 23 37
e 23 38
e 23 42
e 23 43
e 23 47
e 23 51
e 23 54
e 23 56
e 23 58
e 23 62
e 23 66
e 23 72
e 23 73
e 23 76
e 23 78
e 23 81
e 23 82
e 23 84
e 23 87
e 23 90
e 23 91
e 23 94
e 23 98
e 24 25
e 24 27
e 24 29
e 24 33
e 24 37
e 24 41
e 24 44
e 24 45
e 24 46
e 24 50
e 24 53
e 24 58
e 24 60
e 24 62
e 24 63
e 24 65
e 24 66
e 24 70
e 24 71
e 24 73
e 24 77
e 24 78
e 24 79
e 24 83
e 24 85
e 24 86
e 24 89
e 24 90
e 24 94
e 24 96
e 25 30
e 25 33
e 25 34
e 25 38
e 25 40
e 25 42
e 25 45
e 25 47
e 25 48
e 25 49
e 25 52
e 25 53
e 25 57
e 25 59
e 25 60
e 25 64
e 25 66
e 25 68
e 25 69
e 25 70
e 25 71
e 25 72
e 25 76
e 25 79
e 25 80
e 25 82
e 25 83
e 25 87
e 25 88
e 25 89
e 25 91
e 25 92
e 25 93
e 25 97
e 26 27
e 26 30
e 26 34
e 26 35
e 26 36
e 26 39
e 26 44
e 26 46
e 26 52
e 26 55
e 26 59
e 26 62
e 26 64
e 26 65
e 26 67
e 26 68
e 26 69
e 26 71
e 26 73
e 26 78
e 26 79
e 26 83
e 26 84
e 26 87
e 26 88
e 26 91
e 26 95
e 27 30
e 27 32
e 27 33
e 27 35
e 27 36
e 27 37
e 27 39
e 27 40
e 27 41
e 27 45
e 27 46
e 27 47
e 27 48
e 27 54
e 27 55
e 27 56
e 27 58
e 27 61
e 27 63
e 27 65
e 27 72
e 27 75
e 27 76
e 27 77
e 27 78
e 27 80
e 27 88
e 27 89
e 27 90
e 27 91
e 27 94
e 27 96
e 27 97
e 27 98
e 27 99
e 28 32
e 28 33
e 28 40
e 28 41
e 28 42
e 28 43
e 28 44
e 28 47
e 28 52
e 28 53
e 28 55
e 28 60
e 28 62
e 28 67
e 28 71
e 28 73
e 28 74
e 28 76
e 28 83
e 28 85
e 28 87
e 28 88
e 28 90
e 28 91
e 28 92
e 28 95
e 28 99
e 29 31
e 29 32
e 29 35
e 29 36
e 29 38
e 29 40
e 29 45
e 29 50
e 29 51
e 29 59
e 29 65
e 29 70
e 29 74
e 29 78
e 29 79
e 29 84
e 29 85
e 29 87
e 29 90
e 29 91
e 29 92
e 29 93
e 29 95
e 30 31
e 30 34
e 30 38
e 30 40
e 30 41
e 30 43
e 30 45
e 30 46
e 30 48
e 30 50
e 30 52
e 30 53
e 30 54
e 30 56
e 30 61
e 30 62
e 30 63
e 30 66
e 30 68
e 30 76
e 30 77
e 30 78
e 30 80
e 30 88
e 30 94
e 30 95
e 31 32
e 31 34
e 31 38
e 31 41
e 31 42
e 31 43
e 31 45
e 31 51
e 31 52
e 31 54
e 31 55
e 31 57
e 31 64
e 31 66
e 31 68
e 31 70
e 31 71
e 31 73
e 31 74
e 31 78
e 31 80
e 31 82
e 31 88
e 31 97
e 31 98
e 32 33
e 32 35
e 32 36
e 32 39
e 32 40
e 32 45
e 32 47
e 32 51
e 32 58
e 32 59
e 32 60
e 32 61
e 32 62
e 32 66
e 32 67
e 32 69
e 32 75
e 32 79
e 32 82
e 32 85
e 32 89
e 32 90
e 32 92
e 32 96
e 32 97
e 32 98
e 33 35
e 33 38
e 33 39
e 33 40
e 33 44
e 33 46
e 33 47
e 33 50
e 33 54
e 33 55
e 33 58
e 33 61
e 33 62
e 33 64
e 33 65
e 33 67
e 33 71
e 33 77
e 33 80
e 33 82
e 33 85
e 33 88
e 33 90
e 33 96
e 33 98
e 33 99
e 34 35
e 34 36
e 34 37
e 34 38
e 34 40
e 34 41
e 34 46
e 34 48
e 34 49
e 34 50
e 34 51
e 34 54
e 34 55
e 34 63
e 34 65
e 34 68
e 34 69
e 34 70
e 34 72
e 34 74
e 34 75
e 34 81
e 34 86
e 34 87
e 34 90
e 34 91
e 34 94
e 34 97
e 35 36
e 35 37
e 35 38
e 35 40
e 35 41
e 35 42
e 35 43
e 35 50
e 35 56
e 35 57
e 35 61
e 35 62
e 35 63
e 35 65
e 35 66
e 35 67
e 35 69
e 35 72
e 35 74
e 35 75
e 35 79
e 35 83
e 35 87
e 35 88
e 35 93
e 35 94
e 35 96
e 35 97
e 35 99
e 36 40
e 36 41
e 36 43
e 36 47
e 36 48
e 36 54
e 36 55
e 36 59
e 36 70
e 36 76
e 36 77
e 36 78
e 36 81
e 36 84
e 36 85
e 36 89
e 36 90
e 36 92
e 36 93
e 36 94
e 36 95
e 36 98
e 37 39
e 37 41
e 37 43
e 37 44
e 37 49
e 37 51
e 37 52
e 37 54
e 37 55
e 37 56
e 37 57
e 37 58
e 37 60
e 37 63
e 37 64
e 37 65
e 37 66
e 37 67
e 37 69
e 37 70
e 37 72
e 37 74
e 37 76
e 37 77
e 37 80
e 37 82
e 37 84
e 37 85
e 37 87
e 37 89
e 37 91
e 37 93
e 37 94
e 37 95
e 37 99
e 38 39
e 38 41
e 38 42
e 38 44
e 38 48
e 38 50
e 38 54
e 38 55
e 38 59
e 38 61
e 38 63
e 38 64
e 38 66
e 38 67
e 38 70
e 38 71
e 38 74
e 38 76
e 38 81
e 38 84
e 38 85
e 38 89
e 38 90
e 38 91
e 38 93
e 38 97
e 38 98
e 39 40
e 39 43
e 39 44
e 39 45
e 39 46
e 39 49
e 39 54
e 39 57
e 39 60
e 39 62
e 39 65
e 39 67
e 39 70
e 39 72
e 39 77
e 39 78
e 39 81
e 39 83
e 39 95
e 39 96
e 39 97
e 39 98
e 40 43
e 40 44
e 40 46
e 40 56
e 40 58
e 40 59
e 40 63
e 40 66
e 40 67
e 40 68
e 40 69
e 40 71
e 40 73
e 40 76
e 40 81
e 40 84
e 40 85
e 40 89
e 40 91
e 40 97
e 40 98
e 41 42
e 41 44
e 41 45
e 41 50
e 41 55
e 41 58
e 41 61
e 41 62
e 41 63
e 41 70
e 41 72
e 41 80
e 41 81
e 41 85
e 41 87
e 41 88
e 41 92
e 41 93
e 41 97
e 42 48
e 42 49
e 42 50
e 42 54
e 42 55
e 42 56
e 42 57
e 42 60
e 42 61
e 42 63
e 42 66
e 42 68
e 42 70
e 42 75
e 42 79
e 42 80
e 42 82
e 42 87
e 42 89
e 42 93
e 42 94
e 42 95
e 42 97
e 42 98
e 43 45
e 43 48
e 43 49
e 43 50
e 43 51
e 43 54
e 43 57
e 43 59
e 43 60
e 43 63
e 43 64
e 43 65
e 43 66
e 43 67
e 43 73
e 43 76
e 43 78
e 43 82
e 43 83
e 43 91
e 43 94
e 43 97
e 43 99
e 44 45
e 44 47
e 44 49
e 44 52
e 44 54
e 44 55
e 44 56
e 44 57
e 44 60
e 44 62
e 44 64
e 44 66
e 44 68
e 44 69
e 44 71
e 44 72
e 44 75
e 44 77
e 44 78
e 44 80
e 44 85
e 44 88
e 44 92
e 44 93
e 44 98
e 44 99
e 45 47
e 45 48
e 45 49
e 45 50
e 45 57
e 45 58
e 45 59
e 45 60
e 45 61
e 45 63
e 45 66
e 45 72
e 45 74
e 45 77
e 45 78
e 45 80
e 45 81
e 45 82
e 45 83
e 45 86
e 45 87
e 45 90
e 45 92
e 45 93
e 45 94
e 45 95
e 45 99
e 46 47
e 46 48
e 46 49
e 46 50
e 46 51
e 46 53
e 46 54
e 46 55
e 46 57
e 46 58
e 46 63
e 46 65
e 46 69
e 46 70
e 46 72
e 46 80
e 46 81
e 46 82
e 46 83
e 46 84
e 46 85
e 46 86
e 46 91
e 46 93
e 46 98
e 47 48
e 47 50
e 47 51
e 47 57
e 47 59
e 47 60
e 47 61
e 47 63
e 47 64
e 47 65
e 47 71
e 47 72
e 47 73
e 47 74
e 47 77
e 47 78
e 47 84
e 47 85
e 47 88
e 47 89
e 47 90
e 47 98
e 47 99
e 48 57
e 48 58
e 48 60
e 48 62
e 48 70
e 48 73
e 48 79
e 48 81
e 48 82
e 48 85
e 48 86
e 48 87
e 48 93
e 48 94
e 48 97
e 48 99
e 49 50
e 49 51
e 49 53
e 49 55
e 49 59
e 49 60
e 49 61
e 49 62
e 49 64
e 49 66
e 49 71
e 49 77
e 49 79
e 49 84
e 49 85
e 49 87
e 49 90
e 49 92
e 49 95
e 49 96
e 49 97
e 49 99
e 50 52
e 50 56
e 50 62
e 50 65
e 50 69
e 50 73
e 50 74
e 50 75
e 50 76
e 50 84
e 50 85
e 50 89
e 50 90
e 50 92
e 50 94
e 50 97
e 50 99
e 51 54
e 51 55
e 51 56
e 51 57
e 51 58
e 51 59
e 51 61
e 51 62
e 51 66
e 51 71
e 51 74
e 51 78
e 51 80
e 51 81
e 51 84
e 51 85
e 51 88
e 51 91
e 51 94
e 51 99
e 52 54
e 52 65
e 52 67
e 52 68
e 52 71
e 52 73
e 52 74
e 52 75
e 52 79
e 52 83
e 52 86
e 52 87
e 52 91
e 52 97
e 52 98
e 52 99
e 53 54
e 53 57
e 53 59
e 53 61
e 53 62
e 53 64
e 53 65
e 53 67
e 53 69
e 53 72
e 53 75
e 53 76
e 53 77
e 53 81
e 53 83
e 53 85
e 53 86
e 53 87
e 53 88
e 53 91
e 53 94
e 53 96
e 53 97
e 54 58
e 54 59
e 54 64
e 54 74
e 54 75
e 54 77
e 54 81
e 54 82
e 54 83
e 54 89
e 54 90
e 54 92
e 54 96
e 54 97
e 55 60
e 55 63
e 55 65
e 55 66
e 55 68
e 55 74
e 55 78
e 55 79
e 55 80
e 55 82
e 55 86
e 55 94
e 56 57
e 56 58
e 56 60
e 56 65
e 56 66
e 56 67
e 56 68
e 56 69
e 56 74
e 56 75
e 56 76
e 56 83
e 56 90
e 56 91
e 56 92
e 56 93
e 56 96
e 56 99
e 57 59
e 57 63
e 57 65
e 57 66
e 57 69
e 57 71
e 57 74
e 57 80
e 57 82
e 57 84
e 57 85
e 57 88
e 57 91
e 57 92
e 57 93
e 57 94
e 57 95
e 57 97
e 57 98
e 58 59
e 58 60
e 58 61
e 58 62
e 58 63
e 58 64
e 58 65
e 58 68
e 58 72
e 58 75
e 58 76
e 58 77
e 58 78
e 58 79
e 58 81
e 58 83
e 58 85
e 58 87
e 58 88
e 58 89
e 58 91
e 58 92
e 58 95
e 58 96
e 58 97
e 59 67
e 59 70
e 59 74
e 59 78
e 59 83
e 59 86
e 59 88
e 59 92
e 59 94
e 59 95
e 59 98
e 59 99
e 60 62
e 60 63
e 60 65
e 60 67
e 60 69
e 60 72
e 60 73
e 60 75
e 60 83
e 60 84
e 60 86
e 60 89
e 60 91
e 60 92
e 60 96
e 60 97
e 60 99
e 61 62
e 61 63
e 61 67
e 61 69
e 61 71
e 61 72
e 61 76
e 61 80
e 61 81
e 61 82
e 61 84
e 61 86
e 61 92
e 61 95
e 61 96
e 61 97
e 61 99
e 62 63
e 62 65
e 62 66
e 62 67
e 62 69
e 62 70
e 62 71
e 62 72
e 62 74
e 62 75
e 62 77
e 62 78
e 62 87
e 62 92
e 62 93
e 62 95
e 62 97
e 63 64
e 63 67
e 63 72
e 63 74
e 63 79
e 63 81
e 63 82
e 63 84
e 63 86
e 63 89
e 63 90
e 63 91
e 63 92
e 63 96
e 63 97
e 64 65
e 64 66
e 64 68
e 64 69
e 64 70
e 64 72
e 64 73
e 64 75
e 64 80
e 64 84
e 64 85
e 64 86
e 64 87
e 64 90
e 64 93
e 64 94
e 64 97
e 65 69
e 65 71
e 65 72
e 65 73
e 65 77
e 65 79
e 65 81
e 65 82
e 65 83
e 65 84
e 65 88
e 65 89
e 65 92
e 65 93
e 65 94
e 65 95
e 65 96
e 65 98
e 66 67
e 66 69
e 66 72
e 66 73
e 66 75
e 66 77
e 66 78
e 66 79
e 66 83
e 66 84
e 66 85
e 66 91
e 66 93
e 66 99
e 67 68
e 67 70
e 67 73
e 67 75
e 67 83
e 67 84
e 67 85
e 67 87
e 67 90
e 67 91
e 67 93
e 67 94
e 67 96
e 67 97
e 67 99
e 68 70
e 68 71
e 68 75
e 68 78
e 68 79
e 68 80
e 68 83
e 68 84
e 68 87
e 68 90
e 68 91
e 68 92
e 68 94
e 68 96
e 68 98
e 69 70
e 69 73
e 69 75
e 69 77
e 69 81
e 69 83
e 69 86
e 69 88
e 69 90
e 69 96
e 70 71
e 70 73
e 70 74
e 70 75
e 70 76
e 70 77
e 70 78
e 70 82
e 70 83
e 70 85
e 70 89
e 70 90
e 70 94
e 70 96
e 70 98
e 70 99
e 71 76
e 71 78
e 71 79
e 71 85
e 71 89
e 71 90
e 71 92
e 71 93
e 71 94
e 71 96
e 72 74
e 72 79
e 72 84
e 72 86
e 72 89
e 72 92
e 72 93
e 72 94
e 73 74
e 73 75
e 73 78
e 73 79
e 73 80
e 73 84
e 73 85
e 73 86
e 73 89
e 73 90
e 73 91
e 73 92
e 73 93
e 73 94
e 73 96
e 73 97
e 73 98
e 74 75
e 74 78
e 74 80
e 74 81
e 74 82
e 74 86
e 74 87
e 74 91
e 74 92
e 74 93
e 74 94
e 74 95
e 74 96
e 74 99
e 75 79
e 75 80
e 75 81
e 75 82
e 75 84
e 75 85
e 75 86
e 75 93
e 75 94
e 75 96
e 75 98
e 76 77
e 76 78
e 76 81
e 76 83
e 76 85
e 76 88
e 76 89
e 76 90
e 77 81
e 77 84
e 77 85
e 77 86
e 77 87
e 77 88
e 77 93
e 77 97
e 77 98
e 78 80
e 78 84
e 78 87
e 78 90
e 78 91
e 78 94
e 78 96
e 78 97
e 78 99
e 79 80
e 79 82
e 79 84
e 79 87
e 79 88
e 79 95
e 79 96
e 79 97
e 79 98
e 80 82
e 80 85
e 80 87
e 80 97
e 80 98
e 80 99
e 81 84
e 81 86
e 81 87
e 81 88
e 81 89
e 81 94
e 81 97
e 82 83
e 82 86
e 82 89
e 83 84
e 83 87
e 83 90
e 83 92
e 84 86
e 84 87
e 84 88
e 84 90
e 84 91
e 84 92
e 84 93
e 84 94
e 84 96
e 84 98
e 85 87
e 85 90
e 85 95
e 85 99
e 86 87
e 86 88
e 86 89
e 86 90
e 86 91
e 86 93
e 86 94
e 86 95
e 86 96
e 86 97
e 86 98
e 86 99
e 87 90
e 87 92
e 87 94
e 87 96
e 87 98
e 88 89
e 88 91
e 88 92
e 88 93
e 88 99
e 89 97
e 89 99
e 90 91
e 90 94
e 90 96
e 91 92
e 91 93
e 91 94
e 91 96
e 91 97
e 92 94
e 92 96
e 93 94
e 93 95
e 93 99
e 94 95
e 94 97
e 95 97
e 95 98
e 96 97
e 96 98
e 97 98
e 98 99
